 &control
    prefix='cu'
    outdir='../tmp'
    pseudo_dir = '../pseudo',
 /
 &system    
    ibrav=  5, celldm(1) =4.844, celldm(4) = 0.707106781187, nat=  1, ntyp= 1,
    ecutwfc =75.0, 
    occupations='smearing', smearing='marzari-vanderbilt', degauss=0.06
 /
 &electrons
 /
ATOMIC_SPECIES
 Cu  63.546 Cu.pbe-dn-rrkjus_psl.1.0.0.UPF
ATOMIC_POSITIONS alat
 Cu 0.00 0.00 0.00 
K_POINTS automatic
  10 10 10 0 0 0